(set-logic QF_S)
(declare-fun var_0xINPUT_264211 () String)
(assert (and (= (len var_0xINPUT_264211) 0) (= (len var_0xINPUT_264211) 0) (not (= var_0xINPUT_264211 "VZCCTTfYY8"))))
(check-sat var_0xINPUT_264211)